data;


param d:= 100;
param r:=5;
param p:=0.700000;
param M:=1000;
param U:=
         1         1        5.496351e-01
         2         1        5.040551e-01
         3         1        1.067994e-01
         4         1        1.503465e-01
         5         1       -1.059037e+00
         6         1       -2.951281e-01
         7         1        8.095426e-01
         8         1       -3.801749e-01
         9         1        2.493400e-01
        10         1       -8.099672e-01
        11         1        1.577140e-01
        12         1       -1.141656e+00
        13         1        4.921130e-01
        14         1        2.091459e+00
        15         1       -1.137754e+00
        16         1        1.007881e+00
        17         1        1.525095e-01
        18         1       -3.081976e-01
        19         1       -4.238550e-01
        20         1       -1.225294e+00
        21         1       -2.110592e+00
        22         1       -5.909081e-01
        23         1        7.898235e-01
        24         1       -8.992681e-01
        25         1       -3.441204e-01
        26         1        5.993503e-01
        27         1        8.881410e-01
        28         1        1.584944e-03
        29         1       -1.799521e+00
        30         1       -2.047037e-01
        31         1       -5.992997e-01
        32         1       -2.927650e-01
        33         1       -5.294659e-01
        34         1        1.241238e+00
        35         1        5.161576e-01
        36         1        1.747497e+00
        37         1       -7.046753e-01
        38         1       -5.482905e-01
        39         1       -5.743279e-01
        40         1        2.933139e-02
        41         1       -1.356600e+00
        42         1       -1.044085e-01
        43         1        1.312575e+00
        44         1       -2.243533e+00
        45         1        5.695847e-01
        46         1        6.669462e-01
        47         1       -1.322225e+00
        48         1        1.413121e+00
        49         1        9.397224e-01
        50         1        2.147239e+00
        51         1        1.226156e+00
        52         1        1.178635e+00
        53         1       -5.178294e-01
        54         1       -1.714458e+00
        55         1       -2.868279e-01
        56         1        1.020384e+00
        57         1        6.239827e-01
        58         1        2.260596e-01
        59         1        2.786250e-01
        60         1       -6.926268e-01
        61         1       -5.392098e-01
        62         1        9.889650e-02
        63         1        1.510704e+00
        64         1       -3.821461e-01
        65         1       -6.973019e-01
        66         1        1.953501e-01
        67         1        4.914252e-01
        68         1        1.688994e+00
        69         1        2.307434e-01
        70         1        1.275664e+00
        71         1        5.570890e-01
        72         1       -1.264157e+00
        73         1        6.555320e-01
        74         1        4.038677e-01
        75         1        6.215709e-01
        76         1       -7.807361e-01
        77         1       -1.977559e-02
        78         1        5.858741e-01
        79         1        2.827154e-01
        80         1        1.706017e-01
        81         1        3.471433e-01
        82         1        4.649715e-01
        83         1        2.085120e-01
        84         1       -1.788069e+00
        85         1        9.365993e-01
        86         1       -6.672651e-01
        87         1        8.401573e-01
        88         1        1.316701e+00
        89         1       -9.796761e-01
        90         1       -6.000611e-01
        91         1       -3.100053e-01
        92         1       -1.288320e+00
        93         1        1.178203e+00
        94         1       -1.046652e+00
        95         1       -7.651759e-01
        96         1        5.360732e-01
        97         1       -5.802259e-01
        98         1       -1.937971e+00
        99         1        3.079052e-01
       100         1       -1.397778e+00
         1         2        1.339304e+00
         2         2        9.390417e-01
         3         2        1.310644e+00
         4         2        8.456059e-01
         5         2        1.316153e+00
         6         2        1.936540e+00
         7         2       -1.643494e+00
         8         2        1.390904e-01
         9         2        5.951858e-01
        10         2       -4.849854e-01
        11         2       -2.606234e-01
        12         2       -8.041385e-01
        13         2        7.974391e-01
        14         2        1.143904e-01
        15         2       -1.233662e+00
        16         2        3.624607e-01
        17         2       -2.170434e+00
        18         2        7.945732e-01
        19         2       -1.359596e-01
        20         2       -5.953323e-01
        21         2       -1.299514e+00
        22         2       -1.110625e-01
        23         2        7.067546e-01
        24         2        1.408234e+00
        25         2        1.474261e+00
        26         2       -8.559266e-01
        27         2       -2.089288e-01
        28         2        3.096194e-01
        29         2       -5.648430e-01
        30         2       -5.041450e-01
        31         2       -5.934673e-01
        32         2       -1.963991e+00
        33         2       -3.301280e-01
        34         2       -1.440340e+00
        35         2        2.690476e-01
        36         2       -1.169948e+00
        37         2       -1.230704e+00
        38         2        1.058428e-01
        39         2       -5.626658e-01
        40         2        2.589920e-01
        41         2       -5.164072e-01
        42         2        4.579416e-01
        43         2       -1.064848e-01
        44         2       -4.691909e-01
        45         2        3.183174e-01
        46         2        3.591880e+00
        47         2       -1.322813e-01
        48         2       -1.138711e+00
        49         2       -2.212585e+00
        50         2        1.548981e+00
        51         2        2.058072e+00
        52         2        1.150474e+00
        53         2       -5.232705e-01
        54         2       -6.864774e-01
        55         2        1.828953e+00
        56         2       -1.663939e+00
        57         2        1.845867e+00
        58         2        3.655253e-01
        59         2       -7.395733e-01
        60         2       -1.545383e+00
        61         2        2.770550e-02
        62         2        9.090991e-02
        63         2        1.124320e+00
        64         2       -6.768373e-01
        65         2       -4.781018e-01
        66         2       -2.378927e+00
        67         2       -2.623639e-01
        68         2       -7.037124e-01
        69         2       -4.232276e-01
        70         2       -7.857273e-01
        71         2       -7.691430e-01
        72         2        1.215204e-01
        73         2        2.506251e-01
        74         2       -9.007871e-02
        75         2        4.770022e-02
        76         2       -7.894068e-01
        77         2        2.758465e-02
        78         2       -6.585111e-01
        79         2        1.982344e+00
        80         2        9.306208e-01
        81         2        4.726781e-01
        82         2       -6.993387e-01
        83         2        7.657356e-01
        84         2        8.910141e-01
        85         2       -3.609186e-01
        86         2       -1.758236e-01
        87         2        1.324206e+00
        88         2       -6.981580e-01
        89         2       -7.250350e-01
        90         2       -1.158058e-01
        91         2        1.844238e-02
        92         2        1.706160e-01
        93         2        4.687260e-01
        94         2        1.466579e+00
        95         2        1.388438e+00
        96         2       -9.561766e-02
        97         2        1.974104e-01
        98         2       -1.575461e+00
        99         2       -3.152763e-01
       100         2       -1.117357e+00
         1         3        1.617499e-01
         2         3        6.562848e-01
         3         3        2.826122e-01
         4         3       -1.635264e-01
         5         3       -3.817230e-01
         6         3       -4.629466e-01
         7         3       -1.947752e-01
         8         3       -1.696570e+00
         9         3        2.174145e+00
        10         3       -2.733413e-02
        11         3       -2.228077e+00
        12         3        9.408998e-02
        13         3       -1.250846e+00
        14         3       -1.236272e+00
        15         3       -5.228637e-02
        16         3       -1.336072e+00
        17         3       -3.088264e-01
        18         3        9.607645e-02
        19         3        2.035434e-01
        20         3       -1.341702e-01
        21         3       -4.243765e-01
        22         3        1.767928e+00
        23         3       -7.670755e-01
        24         3        1.635323e+00
        25         3       -1.021613e+00
        26         3       -1.698724e+00
        27         3       -3.885711e-01
        28         3        8.909660e-01
        29         3       -5.093818e-01
        30         3       -2.122702e+00
        31         3       -6.284872e-01
        32         3        2.328664e-01
        33         3        3.112030e-01
        34         3       -1.043744e+00
        35         3       -1.287249e+00
        36         3        9.038288e-01
        37         3       -4.155963e-01
        38         3       -9.088799e-01
        39         3        3.683537e-02
        40         3        6.557625e-01
        41         3        1.124146e+00
        42         3        3.362446e-01
        43         3        6.683581e-01
        44         3       -1.762179e-02
        45         3        1.236303e+00
        46         3        1.023207e+00
        47         3        5.369752e-02
        48         3       -1.040757e+00
        49         3        1.587977e-02
        50         3       -1.058054e+00
        51         3        5.926924e-01
        52         3        4.590758e-01
        53         3       -1.064171e+00
        54         3       -6.515875e-01
        55         3       -3.820119e-01
        56         3        2.585963e-01
        57         3       -6.634271e-02
        58         3       -1.499069e+00
        59         3       -1.493523e+00
        60         3       -7.115544e-02
        61         3        3.097442e-01
        62         3        3.541068e-01
        63         3       -1.203267e+00
        64         3       -7.911828e-01
        65         3       -4.990158e-01
        66         3       -2.052798e-01
        67         3        8.943503e-01
        68         3        1.817024e+00
        69         3        1.409052e+00
        70         3        1.164442e+00
        71         3        3.667934e-01
        72         3       -1.253960e+00
        73         3        2.543969e-01
        74         3        8.859407e-01
        75         3        3.362148e-01
        76         3       -6.648414e-01
        77         3       -1.768333e+00
        78         3        5.726810e-01
        79         3        2.200469e-01
        80         3        3.953978e-02
        81         3        3.426982e-01
        82         3        5.772268e-01
        83         3        2.685441e+00
        84         3        3.873960e-01
        85         3       -9.088174e-01
        86         3        4.754247e-02
        87         3        9.393010e-01
        88         3       -6.390939e-01
        89         3       -1.460779e+00
        90         3       -7.303247e-01
        91         3       -4.282789e-01
        92         3        5.725355e-01
        93         3        6.920168e-01
        94         3       -7.705631e-01
        95         3       -5.063428e-01
        96         3        2.133734e-01
        97         3       -3.154656e-01
        98         3       -9.068018e-01
        99         3       -7.215189e-01
       100         3       -1.621924e+00
         1         4        1.220300e+00
         2         4       -4.979161e-01
         3         4       -1.034948e+00
         4         4        1.440608e+00
         5         4       -1.213608e-01
         6         4       -5.959296e-01
         7         4       -1.217043e-01
         8         4       -9.556963e-02
         9         4        7.471227e-01
        10         4        1.187237e+00
        11         4       -1.597671e+00
        12         4       -7.264720e-01
        13         4       -2.271194e+00
        14         4       -2.172237e+00
        15         4       -1.242445e+00
        16         4        9.604917e-02
        17         4        1.338169e+00
        18         4        1.332915e-01
        19         4        6.568703e-01
        20         4       -7.864070e-01
        21         4       -1.420435e+00
        22         4        6.504831e-01
        23         4        8.853232e-01
        24         4       -3.576174e-01
        25         4        1.564456e+00
        26         4       -8.132595e-01
        27         4        1.989181e+00
        28         4        8.465367e-01
        29         4       -9.756550e-01
        30         4       -1.316101e+00
        31         4        1.578426e+00
        32         4        1.170826e+00
        33         4        7.667403e-01
        34         4       -6.744275e-01
        35         4        4.779179e-01
        36         4        1.327373e+00
        37         4       -7.268489e-01
        38         4        1.806318e+00
        39         4       -5.377577e-01
        40         4       -1.012703e+00
        41         4       -5.109578e-01
        42         4        3.760064e-01
        43         4       -6.352527e-01
        44         4       -2.108665e-02
        45         4       -5.895369e-01
        46         4       -1.317381e+00
        47         4        1.094412e+00
        48         4        2.873816e-01
        49         4       -8.502276e-01
        50         4        2.609009e-01
        51         4       -6.792991e-01
        52         4        7.586906e-03
        53         4        7.665934e-01
        54         4        1.030986e+00
        55         4        3.135257e-01
        56         4        1.164945e-01
        57         4       -4.503101e-01
        58         4       -7.943436e-01
        59         4        9.389479e-01
        60         4        1.974764e+00
        61         4        3.145475e-01
        62         4       -4.751036e-01
        63         4        1.661640e+00
        64         4        9.067884e-01
        65         4        1.482410e+00
        66         4        2.154262e-01
        67         4        1.407976e+00
        68         4       -1.300945e-01
        69         4       -5.608070e-01
        70         4       -1.097474e+00
        71         4        1.001157e+00
        72         4       -8.078241e-01
        73         4       -2.657748e-01
        74         4        1.771322e-01
        75         4        8.361750e-01
        76         4        3.401492e-01
        77         4       -9.201437e-01
        78         4        1.083838e+00
        79         4       -1.385148e+00
        80         4       -3.039409e-01
        81         4       -1.127751e+00
        82         4        3.452064e-01
        83         4       -5.010501e-01
        84         4       -5.907070e-01
        85         4       -2.427010e-01
        86         4        1.654649e-01
        87         4       -5.157562e-01
        88         4       -3.263298e-01
        89         4       -1.395169e-01
        90         4       -1.176724e+00
        91         4        5.797472e-01
        92         4       -1.782360e+00
        93         4       -8.575732e-02
        94         4       -6.754596e-01
        95         4        8.057767e-01
        96         4        3.916746e-01
        97         4       -3.106521e-01
        98         4        5.455953e-01
        99         4        1.311556e+00
       100         4        1.638837e+00
         1         5        1.561762e+00
         2         5       -2.331872e-01
         3         5       -8.909189e-01
         4         5        5.843519e-01
         5         5        8.710130e-01
         6         5        1.568798e+00
         7         5       -5.085076e-01
         8         5        7.994926e-01
         9         5        6.165549e-01
        10         5        7.354013e-01
        11         5       -3.707297e-01
        12         5        8.969495e-01
        13         5       -1.581056e-01
        14         5       -3.179374e-01
        15         5       -4.090541e-01
        16         5        4.751677e-01
        17         5        1.827734e+00
        18         5       -3.431655e-01
        19         5       -1.861817e-01
        20         5       -1.739905e+00
        21         5        4.215032e-01
        22         5        6.432640e-01
        23         5        9.318713e-01
        24         5       -6.073318e-01
        25         5       -3.418135e-01
        26         5       -8.503488e-01
        27         5        1.043379e+00
        28         5        4.289959e-01
        29         5        1.346456e-01
        30         5       -1.787546e+00
        31         5       -8.776005e-01
        32         5       -2.548909e-04
        33         5        6.374318e-02
        34         5       -1.990947e+00
        35         5        9.740696e-01
        36         5        1.911758e-01
        37         5       -9.949009e-01
        38         5       -5.822844e-01
        39         5        6.661761e-01
        40         5       -8.905941e-01
        41         5        1.800681e+00
        42         5       -3.589085e-01
        43         5        3.080161e-01
        44         5        5.981353e-01
        45         5       -1.139637e+00
        46         5        1.823735e-01
        47         5       -5.928032e-01
        48         5       -1.449875e+00
        49         5       -3.550877e-01
        50         5        1.392303e+00
        51         5        7.566310e-01
        52         5       -3.536842e-01
        53         5       -5.806411e-01
        54         5        1.436799e-01
        55         5       -7.851619e-01
        56         5       -1.428579e-01
        57         5       -1.494586e-01
        58         5       -2.068958e-01
        59         5       -4.081208e-01
        60         5        1.502221e-01
        61         5        4.731381e-01
        62         5        1.755346e+00
        63         5       -4.070080e-01
        64         5        1.001386e+00
        65         5        5.647423e-01
        66         5       -5.743017e-01
        67         5        1.514162e+00
        68         5       -5.189935e-01
        69         5        1.751334e+00
        70         5        1.095905e+00
        71         5       -1.650473e-02
        72         5       -2.753276e-01
        73         5        1.328406e+00
        74         5        4.607246e-01
        75         5       -1.421273e+00
        76         5        3.931555e-01
        77         5        1.511947e-01
        78         5        1.063094e+00
        79         5        1.029074e+00
        80         5       -3.987057e-01
        81         5       -1.161940e+00
        82         5       -1.796986e+00
        83         5       -1.709656e-01
        84         5        8.781861e-01
        85         5        2.894648e-01
        86         5        7.644986e-01
        87         5       -2.029355e+00
        88         5        3.544560e-02
        89         5       -1.323046e-01
        90         5        4.019225e-01
        91         5        1.469423e+00
        92         5       -1.035815e-01
        93         5       -7.271545e-01
        94         5        1.522892e+00
        95         5       -4.472770e-01
        96         5       -2.049540e+00
        97         5       -1.039290e+00
        98         5       -1.735486e+00
        99         5        6.153177e-01
       100         5        4.672232e-01
;

param theta:=
    1       -2.418740e-01
    2        3.060075e-01
    3       -5.214946e-01
    4       -3.428327e-01
    5       -2.553539e-01
;
param X_true:=
    1       -6.246176e-01
    2        5.343414e-02
    3        8.101678e-01
    4       -3.354291e-01
    5        6.771624e-01
    6        7.091089e-01
    7       -4.255808e-01
    8        8.478798e-01
    9       -1.425560e+00
   10       -5.330557e-01
   11        1.686431e+00
   12        1.015849e-03
   13        1.596314e+00
   14        9.997442e-01
   15        4.553545e-01
   16        4.096250e-01
   17       -1.465493e+00
   18        3.095189e-01
   19       -2.228863e-01
   20        8.980570e-01
   21        7.134852e-01
   22       -1.200292e+00
   23       -1.162145e-01
   24        7.331512e-02
   25        6.180708e-01
   26        9.749399e-01
   27       -1.024501e+00
   28       -7.700376e-01
   29        8.281550e-01
   30        1.909877e+00
   31       -2.593523e-02
   32       -1.052955e+00
   33       -4.143890e-01
   34        5.429405e-01
   35        2.162006e-01
   36       -1.755913e+00
   37        5.138086e-01
   38        1.684057e-01
   39       -3.822418e-02
   40        3.047869e-01
   41       -7.007721e-01
   42       -4.722105e-02
   43       -5.594757e-01
   44        2.627589e-01
   45       -1.919622e-01
   46        8.092999e-01
   47        2.750409e-02
   48        1.242052e-01
   49       -5.304843e-01
   50        6.143282e-02
   51        6.380164e-02
   52       -8.471957e-02
   53        4.055400e-01
   54        1.542699e-01
   55        9.212740e-01
   56       -8.942977e-01
   57        6.410671e-01
   58        1.164090e+00
   59        2.674702e-01
   60       -9.836366e-01
   61       -2.512859e-01
   62       -4.661195e-01
   63        1.404142e-01
   64       -2.686730e-01
   65       -3.698372e-01
   66       -5.953721e-01
   67       -1.534894e+00
   68       -1.394305e+00
   69       -1.175082e+00
   70       -1.059832e+00
   71       -9.004044e-01
   72        1.344141e+00
   73       -4.626268e-01
   74       -7.656376e-01
   75       -2.348198e-01
   76        7.697849e-02
   77        1.212248e+00
   78       -1.284907e+00
   79        6.355732e-01
   80        4.289049e-01
   81        5.652987e-01
   82       -2.869687e-01
   83       -1.001123e+00
   84        4.813848e-01
   85        1.462505e-01
   86       -1.691469e-01
   87        4.071861e-01
   88       -9.600781e-02
   89        8.584960e-01
   90        7.913490e-01
   91       -2.700083e-01
   92        7.027477e-01
   93       -2.873437e-01
   94        9.464799e-01
   95        7.119709e-01
   96        1.188843e-01
   97        7.371525e-01
   98        7.156493e-01
   99       -4.014509e-01
  100        1.608371e-01
;
param X:=
    1       -4.366767e-01
    2        7.965960e-02
    3        8.101678e-01
    4       -5.152624e-01
    5       -8.799621e-01
    6        3.101745e-01
    7        1.520090e+00
    8        5.029885e-01
    9       -1.425560e+00
   10       -5.330557e-01
   11        1.343989e-02
   12       -8.198918e-01
   13        1.596314e+00
   14       -3.099768e-01
   15       -6.200761e-01
   16       -1.542019e+00
   17        1.139198e-01
   18        3.095189e-01
   19       -1.398536e-01
   20        8.980570e-01
   21        5.991573e-02
   22       -1.200292e+00
   23       -1.407758e+00
   24       -9.914791e-02
   25        2.532352e-01
   26        4.576415e-01
   27       -1.024501e+00
   28       -7.700376e-01
   29       -4.836870e-01
   30       -1.144418e+00
   31        1.863026e+00
   32        8.803507e-01
   33       -4.143890e-01
   34       -3.402919e-01
   35       -2.644227e-01
   36       -1.755913e+00
   37       -1.749858e+00
   38        9.533968e-01
   39       -3.822418e-02
   40        1.285661e+00
   41       -2.884280e-01
   42        6.834681e-01
   43       -5.594757e-01
   44       -7.456285e-01
   45        1.307690e+00
   46       -1.581768e+00
   47       -5.296196e-01
   48        5.839458e-01
   49       -5.304843e-01
   50        6.143282e-02
   51        1.822131e+00
   52        5.871428e-01
   53        4.055400e-01
   54        1.634535e+00
   55       -1.097568e+00
   56        4.147824e-01
   57       -1.025974e+00
   58        1.164090e+00
   59       -1.760158e-01
   60        1.316128e-01
   61       -2.922861e-02
   62       -2.177768e-01
   63       -7.005325e-01
   64       -7.917565e-01
   65        1.055424e+00
   66       -5.953721e-01
   67       -1.534894e+00
   68       -2.983937e-01
   69        2.185609e+00
   70       -1.059832e+00
   71       -9.004044e-01
   72       -6.658616e-01
   73       -4.626268e-01
   74       -1.620844e+00
   75        3.384525e-01
   76        7.697849e-02
   77        1.389763e+00
   78       -3.949041e-01
   79       -4.546946e-01
   80       -7.939260e-01
   81        5.652987e-01
   82       -1.298077e+00
   83       -6.744695e-01
   84        4.813848e-01
   85       -4.973880e-01
   86       -1.691469e-01
   87       -4.853095e-02
   88        7.580341e-01
   89        1.207440e+00
   90        1.070892e-01
   91        1.968702e-01
   92       -1.984300e-01
   93       -1.086289e+00
   94        9.464799e-01
   95        7.119709e-01
   96        1.188843e-01
   97        4.976103e-01
   98        1.765074e+00
   99       -4.014509e-01
  100        1.473601e+00
;
param outliervec:=
    1    1
    2    1
    3    0
    4    1
    5    1
    6    1
    7    1
    8    1
    9    0
   10    0
   11    1
   12    1
   13    0
   14    1
   15    1
   16    1
   17    1
   18    0
   19    1
   20    0
   21    1
   22    0
   23    1
   24    1
   25    1
   26    1
   27    0
   28    0
   29    1
   30    1
   31    1
   32    1
   33    0
   34    1
   35    1
   36    0
   37    1
   38    1
   39    0
   40    1
   41    1
   42    1
   43    0
   44    1
   45    1
   46    1
   47    1
   48    1
   49    0
   50    0
   51    1
   52    1
   53    0
   54    1
   55    1
   56    1
   57    1
   58    0
   59    1
   60    1
   61    1
   62    1
   63    1
   64    1
   65    1
   66    0
   67    0
   68    1
   69    1
   70    0
   71    0
   72    1
   73    0
   74    1
   75    1
   76    0
   77    1
   78    1
   79    1
   80    1
   81    0
   82    1
   83    1
   84    0
   85    1
   86    0
   87    1
   88    1
   89    1
   90    1
   91    1
   92    1
   93    1
   94    0
   95    0
   96    0
   97    1
   98    1
   99    0
  100    1
;